Instance name: /mnt/c/Users/ORG/CLionProjects/uMV-FSTSP/Murray_Chu_2015_test_data/FSTSP/FSTSP_10_customer_problems/20140810T123437v1

drone speed: 0.2 miles/minute
uav non-eligible customer: 10 
Printing number of nodes: 11

Set parameter Threads to value 20
Gurobi Optimizer version 11.0.0 build v11.0.0rc2 (linux64 - "Ubuntu 22.04.3 LTS")

CPU model: 13th Gen Intel(R) Core(TM) i5-13500, instruction set [SSE2|AVX|AVX2]
Thread count: 10 physical cores, 20 logical processors, using up to 20 threads

Optimize a model with 6191 rows, 1825 columns and 197592 nonzeros
Model fingerprint: 0xbf27ad73
Variable types: 11 continuous, 1814 integer (1814 binary)
Coefficient statistics:
  Matrix range     [8e-01, 3e+01]
  Objective range  [8e-01, 2e+01]
  Bounds range     [1e+00, 1e+00]
  RHS range        [1e+00, 8e+00]
Found heuristic solution: objective 106.5069108
Presolve removed 903 rows and 1060 columns
Presolve time: 0.43s
Presolved: 5288 rows, 765 columns, 150956 nonzeros
Variable types: 8 continuous, 757 integer (757 binary)

Root relaxation: objective 5.212023e+01, 1092 iterations, 0.07 seconds (0.20 work units)

    Nodes    |    Current Node    |     Objective Bounds      |     Work
 Expl Unexpl |  Obj  Depth IntInf | Incumbent    BestBd   Gap | It/Node Time

     0     0   52.12023    0   82  106.50691   52.12023  51.1%     -    0s
H    0     0                      92.6444974   52.12023  43.7%     -    0s
H    0     0                      83.9451462   52.12023  37.9%     -    0s
H    0     0                      81.6256766   52.12023  36.1%     -    0s
H    0     0                      57.4455299   52.12023  9.27%     -    0s
     0     0   54.14168    0  129   57.44553   54.14168  5.75%     -    0s
     0     0   54.64954    0  124   57.44553   54.64954  4.87%     -    0s
     0     0   55.17282    0  108   57.44553   55.17282  3.96%     -    1s
     0     0   55.17282    0   78   57.44553   55.17282  3.96%     -    1s
     0     0   55.17282    0   86   57.44553   55.17282  3.96%     -    1s
     0     0   55.17282    0   76   57.44553   55.17282  3.96%     -    1s
     0     0   56.01390    0   71   57.44553   56.01390  2.49%     -    1s
     0     0   56.18865    0   73   57.44553   56.18865  2.19%     -    2s
     0     0   56.34013    0   93   57.44553   56.34013  1.92%     -    2s
     0     0   56.34029    0   94   57.44553   56.34029  1.92%     -    2s
     0     0   56.41764    0   95   57.44553   56.41764  1.79%     -    2s
     0     0   56.41764    0   98   57.44553   56.41764  1.79%     -    2s
     0     0   56.41764    0   97   57.44553   56.41764  1.79%     -    2s
     0     0   56.71491    0   84   57.44553   56.71491  1.27%     -    2s
     0     0   56.71491    0   64   57.44553   56.71491  1.27%     -    2s
     0     0   56.71491    0   58   57.44553   56.71491  1.27%     -    2s
     0     0   56.71491    0   55   57.44553   56.71491  1.27%     -    2s
     0     0   56.71491    0   51   57.44553   56.71491  1.27%     -    2s
     0     0   57.14838    0   30   57.44553   57.14838  0.52%     -    2s
     0     0   57.14838    0   40   57.44553   57.14838  0.52%     -    2s
     0     0   57.14838    0   14   57.44553   57.14838  0.52%     -    2s
     0     0   57.36987    0   32   57.44553   57.36987  0.13%     -    2s
     0     0   57.36987    0    7   57.44553   57.36987  0.13%     -    2s
     0     0   57.38535    0   48   57.44553   57.38535  0.10%     -    2s
     0     0   57.39395    0   29   57.44553   57.39395  0.09%     -    2s
     0     0   57.39459    0   28   57.44553   57.39459  0.09%     -    2s
     0     0     cutoff    0        57.44553   57.44553  0.00%     -    2s

Cutting planes:
  Gomory: 3
  Zero half: 1
  RLT: 2

Explored 1 nodes (3961 simplex iterations) in 2.98 seconds (4.02 work units)
Thread count was 20 (of 20 available processors)

Solution count 5: 57.4455 81.6257 83.9451 ... 106.507

Optimal solution found (tolerance 1.00e-04)
Best objective 5.744552991126e+01, best bound 5.744552991126e+01, gap 0.0000%
